
Gurobi 7.0.2 (mac64, Python) logging started Wed Nov 29 09:21:55 2017


Gurobi 7.0.2 (mac64, Python) logging started Wed Nov 29 09:22:40 2017


Gurobi 7.0.2 (mac64, Python) logging started Wed Nov 29 09:25:31 2017


Gurobi 7.0.2 (mac64, Python) logging started Wed Nov 29 09:30:56 2017


Gurobi 7.0.2 (mac64, Python) logging started Wed Nov 29 09:38:05 2017

